unsat
(forall ((A (_ BitVec 21))
         (B (_ BitVec 21))
         (C (_ BitVec 21))
         (D (_ BitVec 21))
         (E (_ BitVec 21))
         (F (_ BitVec 1))
         (G (_ BitVec 21))
         (H (_ BitVec 26))
         (I (_ BitVec 21))
         (J (_ BitVec 21))
         (K (_ BitVec 21))
         (L (_ BitVec 21))
         (M (_ BitVec 21))
         (N (_ BitVec 21))
         (O (_ BitVec 21))
         (P (_ BitVec 1))
         (Q (_ BitVec 21))
         (R (_ BitVec 9))
         (S (_ BitVec 40))
         (T (_ BitVec 1))
         (U (_ BitVec 1))
         (V (_ BitVec 1))
         (W (_ BitVec 21))
         (X (_ BitVec 14))
         (Y (_ BitVec 21))
         (Z (_ BitVec 1))
         (A1 (_ BitVec 21))
         (B1 (_ BitVec 21))
         (C1 (_ BitVec 21))
         (D1 (_ BitVec 21))
         (E1 (_ BitVec 21))
         (F1 (_ BitVec 21))
         (G1 (_ BitVec 1))
         (H1 (_ BitVec 1))
         (I1 (_ BitVec 40))
         (J1 (_ BitVec 21))
         (K1 (_ BitVec 21))
         (L1 (_ BitVec 21))
         (M1 (_ BitVec 14))
         (N1 (_ BitVec 21))
         (O1 (_ BitVec 40))
         (P1 (_ BitVec 14))
         (Q1 (_ BitVec 21))
         (R1 (_ BitVec 13))
         (S1 (_ BitVec 13))
         (T1 (_ BitVec 24))
         (U1 (_ BitVec 24))
         (V1 (_ BitVec 14))
         (W1 (_ BitVec 21))
         (X1 (_ BitVec 24))
         (Y1 (_ BitVec 1))
         (Z1 (_ BitVec 40))
         (A2 (_ BitVec 24))
         (B2 (_ BitVec 1)))
  (! (= (INV!slice!1 A
                     B
                     C
                     D
                     E
                     F
                     G
                     H
                     I
                     J
                     K
                     L
                     M
                     N
                     O
                     P
                     Q
                     R
                     S
                     T
                     U
                     V
                     W
                     X
                     Y
                     Z
                     A1
                     B1
                     C1
                     D1
                     E1
                     F1
                     G1
                     H1
                     I1
                     J1
                     K1
                     L1
                     M1
                     N1
                     O1
                     P1
                     Q1
                     R1
                     S1
                     T1
                     U1
                     V1
                     W1
                     X1
                     Y1
                     Z1
                     A2
                     B2)
        (and (= ((_ extract 20 3) W1) #b000000000000000000)
             (= ((_ extract 20 3) N) #b000000000000000000)))
     :weight 0))
